certificates/rado_a3_c59_N19.cnf
c Rad2 upper bound instance: x1 + 3*x2 - x3 = 59, interval [1,19]
p cnf 19 114
1 3 19 0
-1 -3 -19 0
2 4 19 0
-2 -4 -19 0
3 5 19 0
-3 -5 -19 0
1 6 18 0
-1 -6 -18 0
4 6 19 0
-4 -6 -19 0
2 7 18 0
-2 -7 -18 0
5 7 19 0
-5 -7 -19 0
3 8 18 0
-3 -8 -18 0
6 8 19 0
-6 -8 -19 0
1 9 17 0
-1 -9 -17 0
4 9 18 0
-4 -9 -18 0
7 9 19 0
-7 -9 -19 0
2 10 17 0
-2 -10 -17 0
5 10 18 0
-5 -10 -18 0
8 10 19 0
-8 -10 -19 0
3 11 17 0
-3 -11 -17 0
6 11 18 0
-6 -11 -18 0
9 11 19 0
-9 -11 -19 0
1 12 16 0
-1 -12 -16 0
4 12 17 0
-4 -12 -17 0
7 12 18 0
-7 -12 -18 0
10 12 19 0
-10 -12 -19 0
2 13 16 0
-2 -13 -16 0
5 13 17 0
-5 -13 -17 0
8 13 18 0
-8 -13 -18 0
11 13 19 0
-11 -13 -19 0
3 14 16 0
-3 -14 -16 0
6 14 17 0
-6 -14 -17 0
9 14 18 0
-9 -14 -18 0
12 14 19 0
-12 -14 -19 0
1 15 0
-1 -15 0
4 15 16 0
-4 -15 -16 0
7 15 17 0
-7 -15 -17 0
10 15 18 0
-10 -15 -18 0
13 15 19 0
-13 -15 -19 0
2 15 16 0
-2 -15 -16 0
5 16 0
-5 -16 0
8 16 17 0
-8 -16 -17 0
11 16 18 0
-11 -16 -18 0
14 16 19 0
-14 -16 -19 0
3 15 17 0
-3 -15 -17 0
6 16 17 0
-6 -16 -17 0
9 17 0
-9 -17 0
12 17 18 0
-12 -17 -18 0
15 17 19 0
-15 -17 -19 0
1 14 18 0
-1 -14 -18 0
4 15 18 0
-4 -15 -18 0
7 16 18 0
-7 -16 -18 0
10 17 18 0
-10 -17 -18 0
13 18 0
-13 -18 0
16 18 19 0
-16 -18 -19 0
2 14 19 0
-2 -14 -19 0
5 15 19 0
-5 -15 -19 0
8 16 19 0
-8 -16 -19 0
11 17 19 0
-11 -17 -19 0
14 18 19 0
-14 -18 -19 0
17 19 0
-17 -19 0
