certificates/rado_a3_c59_N19.drat
-19 0
17 0
-9 0
7 0
11 0
-15 0
-3 0
1 0
13 0
5 0
0
